
List of user-set options:

                                    Name   Value                used
                           compl_inf_tol = 1                     yes
                         constr_viol_tol = 1                     yes
                            dual_inf_tol = 1000                  yes
                           linear_solver = ma97                  yes
                              ma86_small = 1e-30                  no
                                  ma86_u = 0.0001                 no
                              ma97_order = best                  yes
                              ma97_small = 1e-30                 yes
                            ma97_switch1 = at_start              yes
                            ma97_switch2 = od_hd_reuse           yes
                                  ma97_u = 1e-06                 yes
                               ma97_umax = 0.5                   yes
                                max_iter = 1000                  yes
                    max_refinement_steps = 20                    yes
                    min_refinement_steps = 5                     yes
                                 mu_init = 1e-06                 yes
           mu_superlinear_decrease_power = 1.25                  yes
                   nlp_scaling_min_value = 1e-08                 yes
                        option_file_name = Preset_Case_185_pf.opt  yes
                             output_file = ./tmp/Preset_Case_185_pf.output  yes
                      print_user_options = yes                   yes
        required_infeasibility_reduction = 1                      no
                                     tol = 1e-08                 yes
                   warm_start_bound_frac = 1e-20                 yes
                   warm_start_bound_push = 1e-20                 yes
                   warm_start_init_point = yes                   yes
              warm_start_mult_bound_push = 1e-20                 yes
                warm_start_mult_init_max = 1e+40                 yes
             warm_start_slack_bound_frac = 1e-20                 yes
             warm_start_slack_bound_push = 1e-20                 yes

******************************************************************************
This program contains Ipopt, a library for large-scale nonlinear optimization.
 Ipopt is released as open source code under the Eclipse Public License (EPL).
         For more information visit http://projects.coin-or.org/Ipopt
******************************************************************************

This is Ipopt version 3.12.10, running with linear solver ma97.

Number of nonzeros in equality constraint Jacobian...:   123443
Number of nonzeros in inequality constraint Jacobian.:      213
Number of nonzeros in Lagrangian Hessian.............:    49069

Total number of variables............................:    31591
                     variables with only lower bounds:    12912
                variables with lower and upper bounds:    15130
                     variables with only upper bounds:        0
Total number of equality constraints.................:    31483
Total number of inequality constraints...............:       25
        inequality constraints with only lower bounds:        4
   inequality constraints with lower and upper bounds:        0
        inequality constraints with only upper bounds:       21

iter    objective    inf_pr   inf_du lg(mu)  ||d||  lg(rg) alpha_du alpha_pr  ls
   0 -5.1157409e+00 4.03e-03 1.02e+00  -6.0 0.00e+00    -  0.00e+00 0.00e+00   0
   1 -5.1150302e+00 4.73e-01 2.22e+00  -6.0 4.81e+05    -  8.64e-05 1.52e-04h  4
   2 -5.1167813e+00 4.72e-01 3.80e+00  -6.0 8.62e+03    -  1.82e-02 1.96e-03h  1
   3 -5.1237121e+00 1.85e+01 5.31e+00  -6.0 1.14e+05    -  1.44e-02 7.67e-03f  1
   4 -5.1372775e+00 3.69e+01 5.85e+00  -6.0 5.83e+04    -  1.28e-02 1.56e-02h  1
   5 -5.2862660e+00 3.04e+01 4.40e+02  -6.0 8.24e+03    -  2.77e-02 1.76e-01h  1
   6 -5.3206413e+00 2.91e+01 4.43e+02  -6.0 6.75e+03    -  5.40e-01 6.08e-02h  1
   7 -5.3722790e+00 2.62e+01 4.68e+02  -6.0 4.84e+03    -  1.53e-01 1.07e-01h  1
   8 -5.4264147e+00 3.34e+01 4.91e+02  -6.0 7.88e+03    -  7.58e-02 1.37e-01h  1
   9 -5.4539269e+00 3.08e+01 4.72e+02  -6.0 2.84e+03    -  2.64e-01 8.72e-02h  1
iter    objective    inf_pr   inf_du lg(mu)  ||d||  lg(rg) alpha_du alpha_pr  ls
  10 -5.4539012e+00 3.06e+01 4.69e+02  -6.0 1.43e+02  -4.0 3.01e-04 5.43e-03h  1
  11 -5.4532805e+00 2.92e+01 4.47e+02  -6.0 9.17e+00  -4.5 5.68e-03 4.76e-02h  1
  12 -5.4518573e+00 2.96e+00 1.93e+02  -6.0 2.55e+01  -5.0 7.91e-02 8.99e-01h  1
  13 -5.4655964e+00 2.07e+00 1.38e+02  -6.0 6.54e+01  -5.4 3.29e-01 3.00e-01h  1
  14 -5.4789462e+00 2.00e+00 1.30e+02  -6.0 9.81e+01  -5.9 7.50e-02 3.50e-02h  1
  15 -5.5803763e+00 1.43e+00 3.73e+04  -6.0 1.32e+02  -6.4 1.06e-01 5.79e-01h  1
  16 -5.5821124e+00 1.40e+00 2.61e+04  -6.0 2.53e+01  -4.2 8.53e-02 2.20e-02h  1
  17 -5.5852783e+00 1.27e+00 3.48e+04  -6.0 1.89e+01  -4.6 4.48e-02 1.02e-01h  1
  18 -5.5859013e+00 1.23e+00 5.21e+04  -6.0 1.77e+01  -5.1 5.12e-01 3.27e-02h  1
  19 -5.6181824e+00 1.57e+00 2.28e+04  -6.0 2.68e+01  -5.6 9.95e-01 8.28e-01h  1
iter    objective    inf_pr   inf_du lg(mu)  ||d||  lg(rg) alpha_du alpha_pr  ls
  20 -5.6198012e+00 9.60e-01 1.41e+05  -6.0 3.34e+01  -6.1 6.79e-01 4.05e-01h  1
  21 -5.6331581e+00 3.02e-01 1.57e+05  -6.0 7.61e+01  -6.5 8.51e-01 7.13e-01h  1
  22r-5.6331581e+00 3.02e-01 1.00e+03  -1.0 0.00e+00  -7.0 0.00e+00 3.86e-07R  2
  23r-5.6332076e+00 2.99e-01 1.00e+03  -1.0 5.12e+03    -  2.15e-05 1.04e-05f  1
  24 -5.6327941e+00 2.65e-01 1.07e+06  -6.0 1.25e+00    -  7.78e-01 1.14e-01h  1
  25 -5.6330236e+00 1.59e-01 3.76e+06  -6.0 1.57e+00    -  1.14e-01 3.98e-01h  1
  26 -5.6349928e+00 1.80e-03 1.43e+02  -6.0 1.20e+00    -  7.22e-01 1.00e+00h  1
  27 -5.6423722e+00 7.34e-03 3.13e+01  -6.0 2.37e+00    -  6.69e-01 1.00e+00h  1
  28 -5.6447011e+00 5.62e-03 6.53e+00  -6.0 5.97e+00    -  8.27e-01 1.00e+00h  1
  29 -5.6464653e+00 1.55e-02 6.23e-01  -6.0 2.70e+01    -  9.58e-01 1.00e+00h  1
iter    objective    inf_pr   inf_du lg(mu)  ||d||  lg(rg) alpha_du alpha_pr  ls
  30 -5.6586188e+00 8.71e-01 3.25e+00  -6.0 3.42e+02    -  7.82e-01 6.55e-01h  1
  31 -5.6633626e+00 1.17e+00 1.16e+01  -6.0 1.36e+03    -  2.57e-01 8.20e-02h  1
  32 -5.6818478e+00 2.89e+00 1.44e+03  -6.0 9.97e+02    -  8.46e-01 1.00e+00h  1
  33 -5.6879687e+00 2.33e+00 7.33e+02  -6.0 9.07e+02  -7.5 2.07e-01 1.93e-01h  1
  34 -5.6972199e+00 1.36e+00 4.47e+04  -6.0 2.17e+02  -8.0 2.34e-01 1.00e+00h  1
  35 -5.6991169e+00 1.21e+00 1.26e+05  -6.0 2.09e+02  -7.5 8.97e-01 1.25e-01h  1
  36 -5.7112171e+00 1.92e+01 4.52e+04  -6.0 1.38e+03  -8.0 3.99e-02 7.50e-01h  1
  37 -5.7184298e+00 1.18e+01 7.90e+06  -6.0 2.22e+02  -4.9 7.55e-06 3.86e-01h  1
  38 -5.7205358e+00 8.91e+00 1.03e+07  -6.0 8.61e+01  -5.4 1.19e-02 2.43e-01h  1
  39 -5.7231699e+00 1.71e-01 1.42e+03  -6.0 2.18e+01  -5.8 6.15e-01 1.00e+00h  1
iter    objective    inf_pr   inf_du lg(mu)  ||d||  lg(rg) alpha_du alpha_pr  ls
  40 -5.7259128e+00 8.57e-02 5.42e+00  -6.0 5.54e+01  -6.3 9.98e-01 1.00e+00h  1
  41 -5.7366691e+00 5.44e-01 2.61e+00  -6.0 1.30e+02  -6.8 1.00e+00 1.00e+00h  1
  42 -5.7410141e+00 5.62e-01 1.39e+01  -6.0 1.51e+02  -7.3 1.00e+00 4.77e-01h  1
  43 -5.7411764e+00 7.69e-01 8.19e+01  -6.0 2.01e+02  -7.7 1.00e+00 1.00e+00h  1
  44 -5.7414262e+00 3.84e-02 2.05e+00  -6.0 1.36e+01  -5.5 1.00e+00 1.00e+00h  1
  45 -5.7418058e+00 2.36e-02 1.73e-01  -6.0 1.40e+01  -6.0 1.00e+00 1.00e+00h  1
  46 -5.7434970e+00 4.74e-02 4.97e-01  -6.0 3.16e+01  -6.5 1.00e+00 1.00e+00h  1
  47 -5.7462200e+00 1.29e-01 9.48e-01  -6.0 6.35e+01  -6.9 1.00e+00 1.00e+00h  1
  48 -5.7482836e+00 1.80e-01 8.88e-01  -6.0 7.54e+01  -7.4 1.00e+00 1.00e+00h  1
  49 -5.7489476e+00 7.07e-02 4.88e+00  -6.0 1.95e+02  -7.9 1.00e+00 1.00e+00h  1
iter    objective    inf_pr   inf_du lg(mu)  ||d||  lg(rg) alpha_du alpha_pr  ls
  50 -5.7502769e+00 2.40e-01 3.01e+01  -6.0 4.47e+02  -8.4 1.00e+00 1.00e+00h  1
  51 -5.7521451e+00 1.09e+00 6.78e+01  -6.0 7.07e+02  -8.9 1.00e+00 1.00e+00h  1
  52 -5.7524014e+00 1.21e+00 4.76e+01  -6.0 5.75e+02  -9.3 1.00e+00 3.34e-01h  1
  53 -5.7530067e+00 7.38e+01 3.61e+01  -6.0 2.10e+03  -9.8 6.02e-01 8.59e-01h  1
  54 -5.7530124e+00 7.33e+01 1.85e+02  -6.0 5.02e+03 -10.3 1.95e-01 7.78e-03h  1
  55 -5.7530428e+00 7.23e+01 4.49e+02  -6.0 6.18e+03  -9.9 2.34e-02 7.69e-02h  2
  56 -5.7530367e+00 7.20e+01 5.26e+02  -6.0 1.63e+04 -10.3 3.43e-02 8.37e-03h  2
  57 -5.7531422e+00 7.96e+01 6.60e+02  -6.0 7.95e+04 -10.8 1.29e-02 7.93e-03h  1
  58 -5.7531228e+00 7.93e+01 5.88e+03  -6.0 7.56e+03    -  2.31e-02 3.73e-03h  1
  59 -5.7530479e+00 7.84e+01 3.86e+04  -6.0 6.73e+03    -  1.85e-03 1.26e-02h  2
iter    objective    inf_pr   inf_du lg(mu)  ||d||  lg(rg) alpha_du alpha_pr  ls
  60 -5.7530099e+00 7.81e+01 3.97e+04  -6.0 8.18e+03    -  6.78e-02 5.37e-03h  2
  61 -5.7530001e+00 7.80e+01 4.71e+04  -6.0 9.01e+03    -  1.63e-02 1.30e-03h  3
  62 -5.7529978e+00 7.79e+01 4.34e+04  -6.0 6.74e+03    -  2.77e-02 2.78e-04h  8
  63 -5.7529967e+00 7.79e+01 5.13e+04  -6.0 7.92e+03    -  1.54e-03 1.34e-04h  7
  64 -5.7526928e+00 7.62e+01 5.01e+04  -6.0 6.73e+03    -  1.14e-01 3.62e-02h  1
  65 -5.7524829e+00 7.53e+01 4.93e+04  -6.0 8.50e+03    -  1.77e-02 1.70e-02h  1
  66 -5.7522382e+00 7.45e+01 1.53e+07  -6.0 8.23e+03    -  6.21e-05 1.46e-02h  1
  67 -5.7521132e+00 7.41e+01 1.52e+07  -6.0 1.10e+04    -  7.41e-04 7.87e-03h  1
  68 -5.7517569e+00 7.32e+01 1.49e+07  -6.0 9.40e+03    -  2.00e-04 2.08e-02h  1
  69 -5.7513649e+00 7.26e+01 1.46e+07  -6.0 1.02e+04    -  6.52e-05 2.06e-02h  1
iter    objective    inf_pr   inf_du lg(mu)  ||d||  lg(rg) alpha_du alpha_pr  ls
  70 -5.7509678e+00 7.21e+01 1.43e+07  -6.0 1.15e+04    -  2.34e-05 1.92e-02h  1
  71 -5.7505743e+00 7.18e+01 1.40e+07  -6.0 1.31e+04    -  8.62e-06 1.77e-02h  1
  72 -5.7501741e+00 7.17e+01 1.38e+07  -6.0 1.51e+04    -  3.08e-06 1.60e-02h  1
  73 -5.7498470e+00 7.15e+01 1.37e+07  -6.0 1.79e+04    -  1.02e-06 9.99e-03h  1
  74 -5.7463474e+00 6.31e+01 1.20e+07  -6.0 4.18e+03    -  3.75e-03 1.22e-01h  1
  75 -5.7457420e+00 6.24e+01 1.19e+07  -6.0 1.75e+04    -  3.11e-03 1.12e-02h  3
  76 -5.7458458e+00 6.13e+01 1.17e+07  -6.0 1.40e+04    -  5.58e-03 1.75e-02h  3
  77 -5.7463631e+00 5.89e+01 1.12e+07  -6.0 1.33e+04    -  1.77e-02 4.04e-02h  1
  78 -5.7470355e+00 5.84e+01 1.11e+07  -6.0 5.65e+04    -  1.13e-02 8.44e-03h  3
  79 -5.7474535e+00 5.80e+01 1.10e+07  -6.0 3.69e+04    -  2.42e-02 6.61e-03h  3
iter    objective    inf_pr   inf_du lg(mu)  ||d||  lg(rg) alpha_du alpha_pr  ls
  80 -5.7479988e+00 5.74e+01 1.09e+07  -6.0 2.96e+04    -  4.87e-02 1.04e-02h  2
  81 -5.7483911e+00 5.67e+01 1.08e+07  -6.0 1.97e+04    -  5.84e-03 1.27e-02h  1
  82 -5.7483916e+00 5.67e+01 1.08e+07  -6.0 3.09e+02  -5.0 6.81e-04 1.05e-05h  1
  83 -5.7483830e+00 5.67e+01 1.08e+07  -6.0 1.28e+06    -  1.16e-03 2.16e-06f  9
  84 -5.7461313e+00 5.09e+01 9.64e+06  -6.0 3.27e+03    -  1.91e-01 1.05e-01h  1
  85 -5.7359614e+00 3.63e+01 3.89e+06  -6.0 2.18e+03    -  2.25e-02 5.96e-01h  1
  86 -5.7359835e+00 3.61e+01 3.87e+06  -6.0 1.13e+02  -5.4 6.86e-04 5.21e-03h  1
  87 -5.7416958e+00 1.44e+01 1.55e+06  -6.0 4.22e+01  -5.9 2.85e-01 6.00e-01f  1
  88 -5.7411691e+00 9.31e+00 9.98e+05  -6.0 3.08e+01  -5.5 1.94e-01 3.55e-01h  1
  89 -5.7473260e+00 5.64e+00 6.04e+05  -6.0 5.51e+01  -6.0 1.30e-05 3.95e-01h  1
iter    objective    inf_pr   inf_du lg(mu)  ||d||  lg(rg) alpha_du alpha_pr  ls
  90 -5.7502427e+00 4.59e+00 4.92e+05  -6.0 1.43e+02  -6.5 7.78e-01 1.85e-01h  1
  91 -5.7519996e+00 2.46e+00 2.63e+05  -6.0 5.91e+01  -6.9 2.08e-04 4.65e-01h  1
  92 -5.7485902e+00 1.71e+00 1.83e+05  -6.0 5.55e+02  -7.4 3.06e-02 3.07e-01H  1
  93 -5.7501016e+00 1.48e+00 1.27e+05  -6.0 4.70e+02    -  1.34e-01 3.02e-01h  1
  94 -5.7534815e+00 7.83e+00 4.93e+03  -6.0 6.83e+02    -  3.73e-01 1.00e+00h  1
  95 -5.7522938e+00 9.84e-04 4.00e+01  -6.0 1.62e+00  -4.3 4.23e-01 1.00e+00h  1
  96 -5.7525760e+00 4.00e-04 1.37e+01  -6.0 3.63e+00  -4.8 7.07e-01 5.94e-01h  1
  97 -5.7527696e+00 7.17e-01 1.02e+01  -6.0 8.39e+02    -  6.79e-01 2.50e-01f  1
  98 -5.7532734e+00 5.81e+00 6.05e+00  -6.0 8.09e+02    -  9.06e-01 7.24e-01h  1
  99 -5.7533262e+00 3.97e+00 6.83e+00  -6.0 5.13e+02    -  9.72e-01 7.10e-01h  1
iter    objective    inf_pr   inf_du lg(mu)  ||d||  lg(rg) alpha_du alpha_pr  ls
 100 -5.7532569e+00 1.53e-01 1.90e-01  -6.0 9.04e+01    -  1.00e+00 1.00e+00h  1
 101 -5.7532455e+00 3.96e-07 1.04e-03  -6.0 4.63e-02  -5.2 1.00e+00 1.00e+00h  1
 102 -5.7532789e+00 5.07e-01 1.95e+01  -6.0 4.21e+03    -  2.13e-01 2.84e-02h  1
 103 -5.7532850e+00 1.13e-02 5.03e-03  -6.0 2.52e+01    -  1.00e+00 1.00e+00h  1
 104 -5.7532850e+00 2.79e-07 3.08e-06  -6.0 1.35e-01  -5.7 1.00e+00 1.00e+00h  1
 105 -5.7534163e+00 3.23e+00 2.90e+01  -7.5 4.21e+03    -  2.00e-01 9.98e-02h  1
 106 -5.7537636e+00 1.69e+01 4.83e+01  -7.5 1.16e+03    -  6.17e-01 8.22e-01h  1
 107 -5.7539817e+00 4.16e+01 2.38e+01  -7.5 2.74e+03    -  5.13e-01 5.11e-01h  1
 108 -5.7539911e+00 3.21e+01 3.47e+01  -7.5 1.59e+03    -  7.65e-02 7.58e-01h  1
 109 -5.7538445e+00 4.90e+00 3.98e+01  -7.5 5.38e+02    -  7.70e-03 1.00e+00h  1
iter    objective    inf_pr   inf_du lg(mu)  ||d||  lg(rg) alpha_du alpha_pr  ls
 110 -5.7538535e+00 1.58e+00 2.15e+00  -7.5 3.14e+02    -  9.46e-01 1.00e+00h  1
 111 -5.7538441e+00 3.31e-03 2.32e-03  -7.5 1.29e+01    -  1.00e+00 1.00e+00h  1
 112 -5.7538440e+00 5.96e-06 7.03e-06  -7.5 6.18e-01    -  1.00e+00 1.00e+00h  1
 113 -5.7538440e+00 1.01e-08 8.03e-09  -7.5 2.53e-02    -  1.00e+00 1.00e+00h  1
 114 -5.7538456e+00 4.33e-03 8.65e-01  -9.0 1.99e+01    -  9.29e-01 8.34e-01h  1
 115 -5.7538458e+00 1.83e-04 2.04e-03  -9.0 3.40e+00    -  1.00e+00 1.00e+00h  1
 116 -5.7538458e+00 2.85e-10 3.73e-09  -9.0 3.03e-03    -  1.00e+00 1.00e+00h  1

Number of Iterations....: 116

                                   (scaled)                 (unscaled)
Objective...............:  -4.4951920103663401e+00   -5.7538457732689157e+00
Dual infeasibility......:   3.7339056950491092e-09    4.7793992896628596e-09
Constraint violation....:   2.8453270197858344e-10    2.8453270197858344e-10
Complementarity.........:   1.1396111632725500e-09    1.4587022889888639e-09
Overall NLP error.......:   3.7339056950491092e-09    4.7793992896628596e-09


Number of objective function evaluations             = 169
Number of objective gradient evaluations             = 117
Number of equality constraint evaluations            = 169
Number of inequality constraint evaluations          = 169
Number of equality constraint Jacobian evaluations   = 118
Number of inequality constraint Jacobian evaluations = 118
Number of Lagrangian Hessian evaluations             = 116
Total CPU secs in IPOPT (w/o function evaluations)   =    287.526
Total CPU secs in NLP function evaluations           =      4.506

EXIT: Optimal Solution Found.
